c This Formular is generated by mcnf
c
c    horn? no 
c    forced? no 
c    mixed sat? no 
c    clause length = 3 
c
p cnf 20  91 
 3 6 11 0
4 13 5 0
-7 6 -2 0
-16 10 -20 0
5 11 -16 0
-5 6 3 0
16 1 -11 0
-11 8 18 0
7 -17 -14 0
-1 -17 10 0
8 -3 15 0
17 -11 5 0
-18 -6 -15 0
-19 -6 12 0
11 13 -1 0
10 16 -3 0
-9 2 8 0
-20 6 8 0
10 -20 11 0
6 4 16 0
7 -14 20 0
%
0

2 71 54 71 41 76 55 54 27 87 94 43 23 94 48 40 97 54 74 74
